VER
4

OBJSENSE
MIN

VAR
23 1
F 23

CON
1378 4
SVECQRE 1333
SVECQE 23
SVECPSD 21
L= 1

OBJACOORD
2
0 1.0
1 1.0

ACOORD
182
0 0 1.0
1 2 1.0
22 3 1.0
28 4 1.0
79 5 1.0
85 6 1.0
91 7 1.0
172 8 1.0
178 9 1.0
184 10 1.0
190 11 1.0
301 12 1.0
307 13 1.0
313 14 1.0
319 15 1.0
325 16 1.0
466 17 1.0
472 18 1.0
478 19 1.0
484 20 1.0
490 21 1.0
496 22 1.0
667 2 1.0
669 2 1.0
672 2 1.0
676 2 1.0
681 2 1.0
687 2 1.0
688 3 1.0
694 4 1.0
696 3 1.0
702 4 1.0
705 3 1.0
711 4 1.0
715 3 1.0
721 4 1.0
726 3 1.0
732 4 1.0
738 3 1.0
744 4 1.0
745 5 1.0
751 6 1.0
757 7 1.0
759 5 1.0
765 6 1.0
771 7 1.0
774 5 1.0
780 6 1.0
786 7 1.0
790 5 1.0
796 6 1.0
802 7 1.0
807 5 1.0
813 6 1.0
819 7 1.0
825 5 1.0
831 6 1.0
837 7 1.0
838 8 1.0
844 9 1.0
850 10 1.0
856 11 1.0
858 8 1.0
864 9 1.0
870 10 1.0
876 11 1.0
879 8 1.0
885 9 1.0
891 10 1.0
897 11 1.0
901 8 1.0
907 9 1.0
913 10 1.0
919 11 1.0
924 8 1.0
930 9 1.0
936 10 1.0
942 11 1.0
948 8 1.0
954 9 1.0
960 10 1.0
966 11 1.0
967 12 1.0
973 13 1.0
979 14 1.0
985 15 1.0
991 16 1.0
993 12 1.0
999 13 1.0
1005 14 1.0
1011 15 1.0
1017 16 1.0
1020 12 1.0
1026 13 1.0
1032 14 1.0
1038 15 1.0
1044 16 1.0
1048 12 1.0
1054 13 1.0
1060 14 1.0
1066 15 1.0
1072 16 1.0
1077 12 1.0
1083 13 1.0
1089 14 1.0
1095 15 1.0
1101 16 1.0
1107 12 1.0
1113 13 1.0
1119 14 1.0
1125 15 1.0
1131 16 1.0
1132 17 1.0
1138 18 1.0
1144 19 1.0
1150 20 1.0
1156 21 1.0
1162 22 1.0
1164 17 1.0
1170 18 1.0
1176 19 1.0
1182 20 1.0
1188 21 1.0
1194 22 1.0
1197 17 1.0
1203 18 1.0
1209 19 1.0
1215 20 1.0
1221 21 1.0
1227 22 1.0
1231 17 1.0
1237 18 1.0
1243 19 1.0
1249 20 1.0
1255 21 1.0
1261 22 1.0
1266 17 1.0
1272 18 1.0
1278 19 1.0
1284 20 1.0
1290 21 1.0
1296 22 1.0
1302 17 1.0
1308 18 1.0
1314 19 1.0
1320 20 1.0
1326 21 1.0
1332 22 1.0
1333 1 1.0
1335 2 1.0
1335 4 1.0
1335 7 1.0
1335 11 1.0
1335 16 1.0
1335 22 1.0
1356 2 1.0
1357 3 1.0
1358 4 1.0
1359 5 1.0
1360 6 1.0
1361 7 1.0
1362 8 1.0
1363 9 1.0
1364 10 1.0
1365 11 1.0
1366 12 1.0
1367 13 1.0
1368 14 1.0
1369 15 1.0
1370 16 1.0
1371 17 1.0
1372 18 1.0
1373 19 1.0
1374 20 1.0
1375 21 1.0
1376 22 1.0
1377 2 1.0
1377 4 1.0
1377 7 1.0
1377 11 1.0
1377 16 1.0
1377 22 1.0

BCOORD
2
1334 -1.0
1377 1.0
